% File represents an instance of a Composite Structure problem to be solved by a CP framework
% Created on 2025-03-26 10:41:36.370
T = 50;
n = 25;
m = 40;
edges = [(1, 2),
(6, 7),
(11, 12),
(16, 17),
(21, 22),
(2, 3),
(7, 8),
(12, 13),
(18, 17),
(23, 22),
(4, 3),
(8, 9),
(13, 14),
(18, 19),
(23, 24),
(5, 4),
(10, 9),
(15, 14),
(20, 19),
(25, 24),
(6, 1),
(6, 11),
(11, 16),
(16, 21),
(7, 2),
(7, 12),
(12, 17),
(22, 17),
(8, 3),
(8, 13),
(18, 13),
(23, 18),
(9, 4),
(9, 14),
(14, 19),
(24, 19),
(10, 5),
(10, 15),
(15, 20),
(25, 20)];
counts = [|8, 14, 8, 14,
|8, 12, 8, 10,
|6, 12, 6, 8,
|6, 12, 6, 10,
|6, 12, 6, 12,
|8, 18, 8, 16,
|8, 18, 8, 10,
|6, 16, 6, 10,
|6, 14, 6, 10,
|6, 18, 6, 12,
|6, 18, 6, 14,
|6, 18, 6, 8,
|6, 16, 6, 4,
|6, 14, 6, 4,
|6, 18, 6, 6,
|6, 18, 6, 8,
|6, 14, 6, 6,
|6, 16, 6, 6,
|6, 14, 6, 2,
|6, 16, 6, 6,
|6, 16, 6, 8,
|6, 16, 6, 6,
|6, 18, 6, 6,
|6, 16, 6, 6,
|8, 18, 8, 6|];
